;; Mutation-Based Equivalence Benchmark
;; Source:     AutomatArk / instance04187.smt2
;; Mutations:  range_shrink_hi, range_expand_hi, opt_to_required
;; Status:     sat
;;
;; Original regex vs mutated regex
;; Equivalence check: unsat ⟺ L(R1) = L(R2)

(set-info :smt-lib-version 2.6)
(set-info :category "mutation")
(set-info :status sat)
(set-logic QF_S)

(declare-const x String)

;; R1: original
;; R2: mutated (range_shrink_hi, range_expand_hi, opt_to_required)
(assert
  (str.in_re x
    (re.union (re.inter (re.++ (re.+ (re.union (re.range "a" "z") (re.range "A" "Z") (re.range "0" "9"))) (re.opt (re.++ (re.opt (re.union (str.to_re "_") (str.to_re ".") (str.to_re "-"))) (re.+ (re.union (re.range "a" "z") (re.range "A" "Z") (re.range "0" "9"))))) (str.to_re "@") (re.+ (re.union (re.range "a" "z") (re.range "A" "Z") (re.range "0" "9"))) (re.* (re.++ (re.opt (re.union (str.to_re "_") (str.to_re "-"))) (re.+ (re.union (re.range "a" "z") (re.range "A" "Z") (re.range "0" "9"))))) ((_ re.loop 1 1) (str.to_re ".")) (re.+ (re.union (re.range "a" "z") (re.range "A" "Z") (re.range "0" "9"))) (re.* (re.++ (re.opt (str.to_re ".")) (re.+ (re.union (re.range "a" "z") (re.range "A" "Z") (re.range "0" "9"))))) (str.to_re "\u{a}")) (re.comp (re.++ (re.+ (re.union (re.range "a" "z") (re.range "A" "Z") (re.range "0" "9"))) (re.opt (re.++ re.union (str.to_re "_") (str.to_re ".") (str.to_re "-")) (re.+ (re.union (re.range "a" "z") (re.range "A" "Z") (re.range "0" "9"))))) (str.to_re "@") (re.+ (re.union (re.range "a" "z") (re.range "A" "[") (re.range "0" "9"))) (re.* (re.++ (re.opt (re.union (str.to_re "_") (str.to_re "-"))) (re.+ (re.union (re.range "a" "z") (re.range "A" "Z") (re.range "0" "9"))))) ((_ re.loop 1 1) (str.to_re ".")) (re.+ (re.union (re.range "a" "z") (re.range "A" "Z") (re.range "0" "9"))) (re.* (re.++ (re.opt (str.to_re ".")) (re.+ (re.union (re.range "a" "z") (re.range "A" "Y") (re.range "0" "9"))))) (str.to_re "\u{a}")))) (re.inter (re.comp (re.++ (re.+ (re.union (re.range "a" "z") (re.range "A" "Z") (re.range "0" "9"))) (re.opt (re.++ (re.opt (re.union (str.to_re "_") (str.to_re ".") (str.to_re "-"))) (re.+ (re.union (re.range "a" "z") (re.range "A" "Z") (re.range "0" "9"))))) (str.to_re "@") (re.+ (re.union (re.range "a" "z") (re.range "A" "Z") (re.range "0" "9"))) (re.* (re.++ (re.opt (re.union (str.to_re "_") (str.to_re "-"))) (re.+ (re.union (re.range "a" "z") (re.range "A" "Z") (re.range "0" "9"))))) ((_ re.loop 1 1) (str.to_re ".")) (re.+ (re.union (re.range "a" "z") (re.range "A" "Z") (re.range "0" "9"))) (re.* (re.++ (re.opt (str.to_re ".")) (re.+ (re.union (re.range "a" "z") (re.range "A" "Z") (re.range "0" "9"))))) (str.to_re "\u{a}"))) (re.++ (re.+ (re.union (re.range "a" "z") (re.range "A" "Z") (re.range "0" "9"))) (re.opt (re.++ re.union (str.to_re "_") (str.to_re ".") (str.to_re "-")) (re.+ (re.union (re.range "a" "z") (re.range "A" "Z") (re.range "0" "9"))))) (str.to_re "@") (re.+ (re.union (re.range "a" "z") (re.range "A" "[") (re.range "0" "9"))) (re.* (re.++ (re.opt (re.union (str.to_re "_") (str.to_re "-"))) (re.+ (re.union (re.range "a" "z") (re.range "A" "Z") (re.range "0" "9"))))) ((_ re.loop 1 1) (str.to_re ".")) (re.+ (re.union (re.range "a" "z") (re.range "A" "Z") (re.range "0" "9"))) (re.* (re.++ (re.opt (str.to_re ".")) (re.+ (re.union (re.range "a" "z") (re.range "A" "Y") (re.range "0" "9"))))) (str.to_re "\u{a}"))))))

(check-sat)
(exit)
